c Sudoku solution
p cnf 729 0
153 0
169 0
192 0
221 0
237 0
258 0
346 0
367 0
375 0
434 0
518 0
585 0
635 0
648 0
659 0
671 0
732 0
784 0
799 0
824 0
852 0
863 0
878 0
913 0
773 0
931 0
411 0
964 0
768 0
928 0
949 0
561 0
694 0
126 0
138 0
725 0
293 0
597 0
286 0
488 0
683 0
496 0
666 0
554 0
536 0
333 0
839 0
351 0
181 0
398 0
177 0
274 0
389 0
144 0
115 0
314 0
219 0
322 0
612 0
627 0
741 0
976 0
982 0
995 0
891 0
887 0
845 0
816 0
717 0
756 0
957 0
242 0
265 0
543 0
462 0
479 0
572 0
423 0
529 0
447 0
455 0
